N = 10;
H = 5;
T = 2;

avail = array3d(1..N, 1..H, 1..T, [0, 3, 3, 9, 0, 6, 1, 10, 2, 0, 1, 0, 5, 8, 8, 7, 2, 6, 0, 6, 0, 0, 3, 10, 1, 9, 3, 2, 1, 5, 9, 5, 7, 1, 5, 0, 0, 8, 3, 0, 3, 0, 6, 8, 6, 7, 1, 10, 3, 3, 10, 10, 3, 5, 7, 6, 9, 6, 9, 6, 5, 1, 7, 4, 9, 9, 0, 8, 7, 8, 1, 7, 2, 8, 3, 8, 7, 10, 7, 2, 3, 0, 7, 2, 10, 0, 1, 8, 9, 2, 10, 2, 5, 5, 9, 4, 5, 9, 1, 9]);

r = array2d(1..H, 1..T, [2, 2, 0, 3, 2, 2, 3, 3, 2, 3]);
